\ Model vert
\ LP format - for model browsing. Use MPS format to capture full model detail.
Minimize
  413.0482735676845 S_coef + 1.332694435917174 Constant + [ 64009 S_coef ^2
   ] / 2 
Subject To
Bounds
 -1000 <= S_coef <= 1000
 Constant = 1
End
